benchmark/results/graph__10-1000-0.10-03_18/graph__10-1000-0.10-03_18_Quinton_Benders_primal_sub.lp
\ This file has been generated by DOcplex
\ ENCODING=ISO-8859-1
\Problem name: Quinton Benders_primal_sub

Maximize
 obj: tau
Subject To
 c1: tau <= 0.001061571125
 c2: y_a0_proc_0 + y_a0_proc_1 - tau = 0
 c3: y_a0_proc_0 <= 0
 c4: y_a0_proc_1 <= 1
 c5: tau <= 0.000877192982
 c6: y_a1_proc_2 - tau = 0
 c7: y_a1_proc_2 <= 1
 c8: tau <= 0.001633986928
 c9: y_a2_proc_0 + y_a2_proc_1 + y_a2_proc_2 - tau = 0
 c10: y_a2_proc_0 <= 0
 c11: y_a2_proc_1 <= 0
 c12: y_a2_proc_2 <= 1
 c13: tau <= 0.001412429379
 c14: y_a3_proc_0 + y_a3_proc_1 + y_a3_proc_2 - tau = 0
 c15: y_a3_proc_0 <= 0
 c16: y_a3_proc_1 <= 0
 c17: y_a3_proc_2 <= 1
 c18: tau <= 0.002531645570
 c19: y_a4_proc_0 + y_a4_proc_2 - tau = 0
 c20: y_a4_proc_0 <= 1
 c21: y_a4_proc_2 <= 0
 c22: tau <= 0.004651162791
 c23: y_a5_proc_0 + y_a5_proc_1 + y_a5_proc_2 - tau = 0
 c24: y_a5_proc_0 <= 0
 c25: y_a5_proc_1 <= 0
 c26: y_a5_proc_2 <= 1
 c27: tau <= 0.001079913607
 c28: y_a6_proc_1 + y_a6_proc_2 - tau = 0
 c29: y_a6_proc_1 <= 1
 c30: y_a6_proc_2 <= 0
 c31: tau <= 0.001257861635
 c32: y_a7_proc_0 + y_a7_proc_1 + y_a7_proc_2 - tau = 0
 c33: y_a7_proc_0 <= 1
 c34: y_a7_proc_1 <= 0
 c35: y_a7_proc_2 <= 0
 c36: tau <= 0.000885739593
 c37: y_a8_proc_0 + y_a8_proc_1 - tau = 0
 c38: y_a8_proc_0 <= 1
 c39: y_a8_proc_1 <= 0
 c40: tau <= 0.001038421599
 c41: y_a9_proc_0 + y_a9_proc_1 + y_a9_proc_2 - tau = 0
 c42: y_a9_proc_0 <= 0
 c43: y_a9_proc_1 <= 0
 c44: y_a9_proc_2 <= 1
 c45: u_a0 - u_a1 - 1140 y_a1_proc_2 >= 0
 c46: u_a1 - u_a2 - 965 y_a2_proc_0 - 819 y_a2_proc_1 - 612 y_a2_proc_2 >= 0
 c47: u_a3 - u_a0 - 1192 y_a0_proc_0 - 942 y_a0_proc_1 >= -1
 c48: u_a4 - u_a3 - 1074 y_a3_proc_0 - 916 y_a3_proc_1 - 708 y_a3_proc_2 >= 0
 c49: u_a2 - u_a5 - 1209 y_a5_proc_0 - 909 y_a5_proc_1 - 215 y_a5_proc_2 >= 0
 c50: u_a1 - u_a6 - 926 y_a6_proc_1 - 828 y_a6_proc_2 >= 0
 c51: u_a5 - u_a7 - 795 y_a7_proc_0 - 1148 y_a7_proc_1 - 915 y_a7_proc_2 >= 0
 c52: u_a0 - u_a8 - 1129 y_a8_proc_0 - 923 y_a8_proc_1 >= 0
 c53: u_a9 - u_a3 - 1074 y_a3_proc_0 - 916 y_a3_proc_1 - 708 y_a3_proc_2 >= 0
 c54: u_a7 - u_a3 - 1074 y_a3_proc_0 - 916 y_a3_proc_1 - 708 y_a3_proc_2 >= 0
 c55: u_a8 - u_a6 - 926 y_a6_proc_1 - 828 y_a6_proc_2 >= 0
 c56: u_a6 - u_a9 - 1278 y_a9_proc_0 - 1036 y_a9_proc_1 - 963 y_a9_proc_2 >= 0
 c57: u_a8 - u_a2 - 965 y_a2_proc_0 - 819 y_a2_proc_1 - 612 y_a2_proc_2 >= 0
 c58: u_a7 - u_a0 - 1192 y_a0_proc_0 - 942 y_a0_proc_1 >= -1
 c59: u_a2 - u_a0 - 942 y_a0_proc_1 >= -2557
 c60: u_a2 - u_a0 - 1192 y_a0_proc_0 >= -3835
 c61: u_a0 - u_a2 - 819 y_a2_proc_1 >= 0
 c62: u_a0 - u_a2 - 965 y_a2_proc_0 >= -1278
 c63: u_a3 - u_a0 - 942 y_a0_proc_1 >= -2557
 c64: u_a3 - u_a0 - 1192 y_a0_proc_0 >= -3835
 c65: u_a0 - u_a3 - 916 y_a3_proc_1 >= 0
 c66: u_a0 - u_a3 - 1074 y_a3_proc_0 >= -1278
 c67: u_a4 - u_a0 - 1192 y_a0_proc_0 >= 999998721
 c68: u_a0 - u_a4 - 395 y_a4_proc_0 >= -1000001278
 c69: u_a5 - u_a0 - 942 y_a0_proc_1 >= -2557
 c70: u_a5 - u_a0 - 1192 y_a0_proc_0 >= -3835
 c71: u_a0 - u_a5 - 909 y_a5_proc_1 >= 0
 c72: u_a0 - u_a5 - 1209 y_a5_proc_0 >= -1278
 c73: u_a6 - u_a0 - 942 y_a0_proc_1 >= -1
 c74: u_a0 - u_a6 - 926 y_a6_proc_1 >= 0
 c75: u_a7 - u_a0 - 942 y_a0_proc_1 >= -2557
 c76: u_a7 - u_a0 - 1192 y_a0_proc_0 >= -2557
 c77: u_a0 - u_a7 - 1148 y_a7_proc_1 >= 0
 c78: u_a0 - u_a7 - 795 y_a7_proc_0 >= 0
 c79: u_a8 - u_a0 - 942 y_a0_proc_1 >= -2557
 c80: u_a8 - u_a0 - 1192 y_a0_proc_0 >= -2557
 c81: u_a0 - u_a8 - 923 y_a8_proc_1 >= 0
 c82: u_a0 - u_a8 - 1129 y_a8_proc_0 >= 0
 c83: u_a9 - u_a0 - 942 y_a0_proc_1 >= -2557
 c84: u_a9 - u_a0 - 1192 y_a0_proc_0 >= -3835
 c85: u_a0 - u_a9 - 1036 y_a9_proc_1 >= 0
 c86: u_a0 - u_a9 - 1278 y_a9_proc_0 >= -1278
 c87: u_a2 - u_a1 - 1140 y_a1_proc_2 >= -1
 c88: u_a1 - u_a2 - 612 y_a2_proc_2 >= 0
 c89: u_a3 - u_a1 - 1140 y_a1_proc_2 >= -1
 c90: u_a1 - u_a3 - 708 y_a3_proc_2 >= 0
 c91: u_a4 - u_a1 - 1140 y_a1_proc_2 >= 999996165
 c92: u_a1 - u_a4 - 905 y_a4_proc_2 >= -999998722
 c93: u_a5 - u_a1 - 1140 y_a1_proc_2 >= -1
 c94: u_a1 - u_a5 - 215 y_a5_proc_2 >= 0
 c95: u_a6 - u_a1 - 1140 y_a1_proc_2 >= -2557
 c96: u_a1 - u_a6 - 828 y_a6_proc_2 >= 0
 c97: u_a7 - u_a1 - 1140 y_a1_proc_2 >= -2557
 c98: u_a1 - u_a7 - 915 y_a7_proc_2 >= 0
 c99: u_a9 - u_a1 - 1140 y_a1_proc_2 >= -1
 c100: u_a1 - u_a9 - 963 y_a9_proc_2 >= 0
 c101: u_a3 - u_a2 - 612 y_a2_proc_2 >= -1
 c102: u_a3 - u_a2 - 819 y_a2_proc_1 >= -2557
 c103: u_a3 - u_a2 - 965 y_a2_proc_0 >= -2557
 c104: u_a2 - u_a3 - 708 y_a3_proc_2 >= 0
 c105: u_a2 - u_a3 - 916 y_a3_proc_1 >= -2556
 c106: u_a2 - u_a3 - 1074 y_a3_proc_0 >= -2556
 c107: u_a4 - u_a2 - 612 y_a2_proc_2 >= 999996166
 c108: u_a4 - u_a2 - 965 y_a2_proc_0 >= 999996166
 c109: u_a2 - u_a4 - 905 y_a4_proc_2 >= -999998723
 c110: u_a2 - u_a4 - 395 y_a4_proc_0 >= -999998723
 c111: u_a5 - u_a2 - 612 y_a2_proc_2 >= -1
 c112: u_a5 - u_a2 - 819 y_a2_proc_1 >= -2557
 c113: u_a5 - u_a2 - 965 y_a2_proc_0 >= -2557
 c114: u_a2 - u_a5 - 215 y_a5_proc_2 >= 0
 c115: u_a2 - u_a5 - 909 y_a5_proc_1 >= -2556
 c116: u_a2 - u_a5 - 1209 y_a5_proc_0 >= -2556
 c117: u_a6 - u_a2 - 612 y_a2_proc_2 >= -2556
 c118: u_a6 - u_a2 - 819 y_a2_proc_1 >= -2556
 c119: u_a2 - u_a6 - 828 y_a6_proc_2 >= -1
 c120: u_a2 - u_a6 - 926 y_a6_proc_1 >= -1
 c121: u_a7 - u_a2 - 612 y_a2_proc_2 >= -2557
 c122: u_a7 - u_a2 - 819 y_a2_proc_1 >= -3835
 c123: u_a7 - u_a2 - 965 y_a2_proc_0 >= -2557
 c124: u_a2 - u_a7 - 915 y_a7_proc_2 >= 0
 c125: u_a2 - u_a7 - 1148 y_a7_proc_1 >= -1278
 c126: u_a2 - u_a7 - 795 y_a7_proc_0 >= 0
 c127: u_a8 - u_a2 - 819 y_a2_proc_1 >= -3834
 c128: u_a8 - u_a2 - 965 y_a2_proc_0 >= -2556
 c129: u_a2 - u_a8 - 923 y_a8_proc_1 >= -1279
 c130: u_a2 - u_a8 - 1129 y_a8_proc_0 >= -1
 c131: u_a9 - u_a2 - 612 y_a2_proc_2 >= 0
 c132: u_a9 - u_a2 - 819 y_a2_proc_1 >= -2556
 c133: u_a9 - u_a2 - 965 y_a2_proc_0 >= -2556
 c134: u_a2 - u_a9 - 963 y_a9_proc_2 >= -1
 c135: u_a2 - u_a9 - 1036 y_a9_proc_1 >= -2557
 c136: u_a2 - u_a9 - 1278 y_a9_proc_0 >= -2557
 c137: u_a4 - u_a3 - 708 y_a3_proc_2 >= 999996166
 c138: u_a4 - u_a3 - 1074 y_a3_proc_0 >= 999996166
 c139: u_a3 - u_a4 - 905 y_a4_proc_2 >= -999998723
 c140: u_a3 - u_a4 - 395 y_a4_proc_0 >= -999998723
 c141: u_a5 - u_a3 - 708 y_a3_proc_2 >= 0
 c142: u_a5 - u_a3 - 916 y_a3_proc_1 >= -2556
 c143: u_a5 - u_a3 - 1074 y_a3_proc_0 >= -2556
 c144: u_a3 - u_a5 - 215 y_a5_proc_2 >= -1
 c145: u_a3 - u_a5 - 909 y_a5_proc_1 >= -2557
 c146: u_a3 - u_a5 - 1209 y_a5_proc_0 >= -2557
 c147: u_a6 - u_a3 - 708 y_a3_proc_2 >= -2556
 c148: u_a6 - u_a3 - 916 y_a3_proc_1 >= -2556
 c149: u_a3 - u_a6 - 828 y_a6_proc_2 >= -1
 c150: u_a3 - u_a6 - 926 y_a6_proc_1 >= -1
 c151: u_a7 - u_a3 - 708 y_a3_proc_2 >= -2556
 c152: u_a7 - u_a3 - 916 y_a3_proc_1 >= -3834
 c153: u_a7 - u_a3 - 1074 y_a3_proc_0 >= -2556
 c154: u_a3 - u_a7 - 915 y_a7_proc_2 >= -1
 c155: u_a3 - u_a7 - 1148 y_a7_proc_1 >= -1279
 c156: u_a3 - u_a7 - 795 y_a7_proc_0 >= -1
 c157: u_a8 - u_a3 - 916 y_a3_proc_1 >= -3834
 c158: u_a8 - u_a3 - 1074 y_a3_proc_0 >= -2556
 c159: u_a3 - u_a8 - 923 y_a8_proc_1 >= -1279
 c160: u_a3 - u_a8 - 1129 y_a8_proc_0 >= -1
 c161: u_a9 - u_a3 - 708 y_a3_proc_2 >= 0
 c162: u_a9 - u_a3 - 916 y_a3_proc_1 >= -2556
 c163: u_a9 - u_a3 - 1074 y_a3_proc_0 >= -2556
 c164: u_a3 - u_a9 - 963 y_a9_proc_2 >= -1
 c165: u_a3 - u_a9 - 1036 y_a9_proc_1 >= -2557
 c166: u_a3 - u_a9 - 1278 y_a9_proc_0 >= -2557
 c167: u_a5 - u_a4 - 905 y_a4_proc_2 >= -1000001278
 c168: u_a5 - u_a4 - 395 y_a4_proc_0 >= -1000001278
 c169: u_a4 - u_a5 - 215 y_a5_proc_2 >= 999998721
 c170: u_a4 - u_a5 - 1209 y_a5_proc_0 >= 999998721
 c171: u_a6 - u_a4 - 905 y_a4_proc_2 >= -1000002556
 c172: u_a4 - u_a6 - 828 y_a6_proc_2 >= 999997443
 c173: u_a7 - u_a4 - 905 y_a4_proc_2 >= -1000001279
 c174: u_a7 - u_a4 - 395 y_a4_proc_0 >= -999998723
 c175: u_a4 - u_a7 - 915 y_a7_proc_2 >= 999996166
 c176: u_a4 - u_a7 - 795 y_a7_proc_0 >= 999998722
 c177: u_a8 - u_a4 - 395 y_a4_proc_0 >= -999998722
 c178: u_a4 - u_a8 - 1129 y_a8_proc_0 >= 999998721
 c179: u_a9 - u_a4 - 905 y_a4_proc_2 >= -1000001278
 c180: u_a9 - u_a4 - 395 y_a4_proc_0 >= -1000001278
 c181: u_a4 - u_a9 - 963 y_a9_proc_2 >= 999998721
 c182: u_a4 - u_a9 - 1278 y_a9_proc_0 >= 999998721
 c183: u_a6 - u_a5 - 215 y_a5_proc_2 >= -2556
 c184: u_a6 - u_a5 - 909 y_a5_proc_1 >= -2556
 c185: u_a5 - u_a6 - 828 y_a6_proc_2 >= -1
 c186: u_a5 - u_a6 - 926 y_a6_proc_1 >= -1
 c187: u_a7 - u_a5 - 215 y_a5_proc_2 >= -2556
 c188: u_a7 - u_a5 - 909 y_a5_proc_1 >= -3834
 c189: u_a7 - u_a5 - 1209 y_a5_proc_0 >= -2556
 c190: u_a5 - u_a7 - 915 y_a7_proc_2 >= -1
 c191: u_a5 - u_a7 - 1148 y_a7_proc_1 >= -1279
 c192: u_a5 - u_a7 - 795 y_a7_proc_0 >= -1
 c193: u_a8 - u_a5 - 909 y_a5_proc_1 >= -3834
 c194: u_a8 - u_a5 - 1209 y_a5_proc_0 >= -2556
 c195: u_a5 - u_a8 - 923 y_a8_proc_1 >= -1279
 c196: u_a5 - u_a8 - 1129 y_a8_proc_0 >= -1
 c197: u_a9 - u_a5 - 215 y_a5_proc_2 >= 0
 c198: u_a9 - u_a5 - 909 y_a5_proc_1 >= -2556
 c199: u_a9 - u_a5 - 1209 y_a5_proc_0 >= -2556
 c200: u_a5 - u_a9 - 963 y_a9_proc_2 >= -1
 c201: u_a5 - u_a9 - 1036 y_a9_proc_1 >= -2557
 c202: u_a5 - u_a9 - 1278 y_a9_proc_0 >= -2557
 c203: u_a7 - u_a6 - 828 y_a6_proc_2 >= -3835
 c204: u_a7 - u_a6 - 926 y_a6_proc_1 >= -2557
 c205: u_a6 - u_a7 - 915 y_a7_proc_2 >= -1278
 c206: u_a6 - u_a7 - 1148 y_a7_proc_1 >= 0
 c207: u_a8 - u_a6 - 926 y_a6_proc_1 >= -2556
 c208: u_a6 - u_a8 - 923 y_a8_proc_1 >= -1
 c209: u_a9 - u_a6 - 828 y_a6_proc_2 >= -2556
 c210: u_a9 - u_a6 - 926 y_a6_proc_1 >= -2556
 c211: u_a6 - u_a9 - 963 y_a9_proc_2 >= -1
 c212: u_a6 - u_a9 - 1036 y_a9_proc_1 >= -1
 c213: u_a8 - u_a7 - 1148 y_a7_proc_1 >= -2556
 c214: u_a8 - u_a7 - 795 y_a7_proc_0 >= 0
 c215: u_a7 - u_a8 - 923 y_a8_proc_1 >= -2557
 c216: u_a7 - u_a8 - 1129 y_a8_proc_0 >= -1
 c217: u_a9 - u_a7 - 915 y_a7_proc_2 >= 0
 c218: u_a9 - u_a7 - 1148 y_a7_proc_1 >= -1278
 c219: u_a9 - u_a7 - 795 y_a7_proc_0 >= 0
 c220: u_a7 - u_a9 - 963 y_a9_proc_2 >= -2557
 c221: u_a7 - u_a9 - 1036 y_a9_proc_1 >= -3835
 c222: u_a7 - u_a9 - 1278 y_a9_proc_0 >= -2557
 c223: u_a9 - u_a8 - 923 y_a8_proc_1 >= -3835
 c224: u_a9 - u_a8 - 1129 y_a8_proc_0 >= -2557
 c225: u_a8 - u_a9 - 1036 y_a9_proc_1 >= -1278
 c226: u_a8 - u_a9 - 1278 y_a9_proc_0 >= 0
 c227: tau <= 0.001061571125
 c228: y_a0_proc_0 + y_a0_proc_1 - tau = 0
 c229: y_a0_proc_0 <= 0
 c230: y_a0_proc_1 <= 1
 c231: tau <= 0.000877192982
 c232: y_a1_proc_2 - tau = 0
 c233: y_a1_proc_2 <= 1
 c234: tau <= 0.001633986928
 c235: y_a2_proc_0 + y_a2_proc_1 + y_a2_proc_2 - tau = 0
 c236: y_a2_proc_0 <= 0
 c237: y_a2_proc_1 <= 0
 c238: y_a2_proc_2 <= 1
 c239: tau <= 0.001412429379
 c240: y_a3_proc_0 + y_a3_proc_1 + y_a3_proc_2 - tau = 0
 c241: y_a3_proc_0 <= 0
 c242: y_a3_proc_1 <= 0
 c243: y_a3_proc_2 <= 1
 c244: tau <= 0.002531645570
 c245: y_a4_proc_0 + y_a4_proc_2 - tau = 0
 c246: y_a4_proc_0 <= 1
 c247: y_a4_proc_2 <= 0
 c248: tau <= 0.004651162791
 c249: y_a5_proc_0 + y_a5_proc_1 + y_a5_proc_2 - tau = 0
 c250: y_a5_proc_0 <= 0
 c251: y_a5_proc_1 <= 0
 c252: y_a5_proc_2 <= 1
 c253: tau <= 0.001079913607
 c254: y_a6_proc_1 + y_a6_proc_2 - tau = 0
 c255: y_a6_proc_1 <= 1
 c256: y_a6_proc_2 <= 0
 c257: tau <= 0.001257861635
 c258: y_a7_proc_0 + y_a7_proc_1 + y_a7_proc_2 - tau = 0
 c259: y_a7_proc_0 <= 1
 c260: y_a7_proc_1 <= 0
 c261: y_a7_proc_2 <= 0
 c262: tau <= 0.000885739593
 c263: y_a8_proc_0 + y_a8_proc_1 - tau = 0
 c264: y_a8_proc_0 <= 1
 c265: y_a8_proc_1 <= 0
 c266: tau <= 0.001038421599
 c267: y_a9_proc_0 + y_a9_proc_1 + y_a9_proc_2 - tau = 0
 c268: y_a9_proc_0 <= 0
 c269: y_a9_proc_1 <= 0
 c270: y_a9_proc_2 <= 1
 c271: u_a0 - u_a1 - 1140 y_a1_proc_2 >= 0
 c272: u_a1 - u_a2 - 965 y_a2_proc_0 - 819 y_a2_proc_1 - 612 y_a2_proc_2 >= 0
 c273: u_a3 - u_a0 - 1192 y_a0_proc_0 - 942 y_a0_proc_1 >= -1
 c274: u_a4 - u_a3 - 1074 y_a3_proc_0 - 916 y_a3_proc_1 - 708 y_a3_proc_2 >= 0
 c275: u_a2 - u_a5 - 1209 y_a5_proc_0 - 909 y_a5_proc_1 - 215 y_a5_proc_2 >= 0
 c276: u_a1 - u_a6 - 926 y_a6_proc_1 - 828 y_a6_proc_2 >= 0
 c277: u_a5 - u_a7 - 795 y_a7_proc_0 - 1148 y_a7_proc_1 - 915 y_a7_proc_2 >= 0
 c278: u_a0 - u_a8 - 1129 y_a8_proc_0 - 923 y_a8_proc_1 >= 0
 c279: u_a9 - u_a3 - 1074 y_a3_proc_0 - 916 y_a3_proc_1 - 708 y_a3_proc_2 >= 0
 c280: u_a7 - u_a3 - 1074 y_a3_proc_0 - 916 y_a3_proc_1 - 708 y_a3_proc_2 >= 0
 c281: u_a8 - u_a6 - 926 y_a6_proc_1 - 828 y_a6_proc_2 >= 0
 c282: u_a6 - u_a9 - 1278 y_a9_proc_0 - 1036 y_a9_proc_1 - 963 y_a9_proc_2 >= 0
 c283: u_a8 - u_a2 - 965 y_a2_proc_0 - 819 y_a2_proc_1 - 612 y_a2_proc_2 >= 0
 c284: u_a7 - u_a0 - 1192 y_a0_proc_0 - 942 y_a0_proc_1 >= -1
 c285: u_a2 - u_a0 - 942 y_a0_proc_1 >= -2557
 c286: u_a2 - u_a0 - 1192 y_a0_proc_0 >= -3835
 c287: u_a0 - u_a2 - 819 y_a2_proc_1 >= 0
 c288: u_a0 - u_a2 - 965 y_a2_proc_0 >= -1278
 c289: u_a3 - u_a0 - 942 y_a0_proc_1 >= -2557
 c290: u_a3 - u_a0 - 1192 y_a0_proc_0 >= -3835
 c291: u_a0 - u_a3 - 916 y_a3_proc_1 >= 0
 c292: u_a0 - u_a3 - 1074 y_a3_proc_0 >= -1278
 c293: u_a4 - u_a0 - 1192 y_a0_proc_0 >= 999998721
 c294: u_a0 - u_a4 - 395 y_a4_proc_0 >= -1000001278
 c295: u_a5 - u_a0 - 942 y_a0_proc_1 >= -2557
 c296: u_a5 - u_a0 - 1192 y_a0_proc_0 >= -3835
 c297: u_a0 - u_a5 - 909 y_a5_proc_1 >= 0
 c298: u_a0 - u_a5 - 1209 y_a5_proc_0 >= -1278
 c299: u_a6 - u_a0 - 942 y_a0_proc_1 >= -1
 c300: u_a0 - u_a6 - 926 y_a6_proc_1 >= 0
 c301: u_a7 - u_a0 - 942 y_a0_proc_1 >= -2557
 c302: u_a7 - u_a0 - 1192 y_a0_proc_0 >= -2557
 c303: u_a0 - u_a7 - 1148 y_a7_proc_1 >= 0
 c304: u_a0 - u_a7 - 795 y_a7_proc_0 >= 0
 c305: u_a8 - u_a0 - 942 y_a0_proc_1 >= -2557
 c306: u_a8 - u_a0 - 1192 y_a0_proc_0 >= -2557
 c307: u_a0 - u_a8 - 923 y_a8_proc_1 >= 0
 c308: u_a0 - u_a8 - 1129 y_a8_proc_0 >= 0
 c309: u_a9 - u_a0 - 942 y_a0_proc_1 >= -2557
 c310: u_a9 - u_a0 - 1192 y_a0_proc_0 >= -3835
 c311: u_a0 - u_a9 - 1036 y_a9_proc_1 >= 0
 c312: u_a0 - u_a9 - 1278 y_a9_proc_0 >= -1278
 c313: u_a2 - u_a1 - 1140 y_a1_proc_2 >= -1
 c314: u_a1 - u_a2 - 612 y_a2_proc_2 >= 0
 c315: u_a3 - u_a1 - 1140 y_a1_proc_2 >= -1
 c316: u_a1 - u_a3 - 708 y_a3_proc_2 >= 0
 c317: u_a4 - u_a1 - 1140 y_a1_proc_2 >= 999996165
 c318: u_a1 - u_a4 - 905 y_a4_proc_2 >= -999998722
 c319: u_a5 - u_a1 - 1140 y_a1_proc_2 >= -1
 c320: u_a1 - u_a5 - 215 y_a5_proc_2 >= 0
 c321: u_a6 - u_a1 - 1140 y_a1_proc_2 >= -2557
 c322: u_a1 - u_a6 - 828 y_a6_proc_2 >= 0
 c323: u_a7 - u_a1 - 1140 y_a1_proc_2 >= -2557
 c324: u_a1 - u_a7 - 915 y_a7_proc_2 >= 0
 c325: u_a9 - u_a1 - 1140 y_a1_proc_2 >= -1
 c326: u_a1 - u_a9 - 963 y_a9_proc_2 >= 0
 c327: u_a3 - u_a2 - 612 y_a2_proc_2 >= -1
 c328: u_a3 - u_a2 - 819 y_a2_proc_1 >= -2557
 c329: u_a3 - u_a2 - 965 y_a2_proc_0 >= -2557
 c330: u_a2 - u_a3 - 708 y_a3_proc_2 >= 0
 c331: u_a2 - u_a3 - 916 y_a3_proc_1 >= -2556
 c332: u_a2 - u_a3 - 1074 y_a3_proc_0 >= -2556
 c333: u_a4 - u_a2 - 612 y_a2_proc_2 >= 999996166
 c334: u_a4 - u_a2 - 965 y_a2_proc_0 >= 999996166
 c335: u_a2 - u_a4 - 905 y_a4_proc_2 >= -999998723
 c336: u_a2 - u_a4 - 395 y_a4_proc_0 >= -999998723
 c337: u_a5 - u_a2 - 612 y_a2_proc_2 >= -1
 c338: u_a5 - u_a2 - 819 y_a2_proc_1 >= -2557
 c339: u_a5 - u_a2 - 965 y_a2_proc_0 >= -2557
 c340: u_a2 - u_a5 - 215 y_a5_proc_2 >= 0
 c341: u_a2 - u_a5 - 909 y_a5_proc_1 >= -2556
 c342: u_a2 - u_a5 - 1209 y_a5_proc_0 >= -2556
 c343: u_a6 - u_a2 - 612 y_a2_proc_2 >= -2556
 c344: u_a6 - u_a2 - 819 y_a2_proc_1 >= -2556
 c345: u_a2 - u_a6 - 828 y_a6_proc_2 >= -1
 c346: u_a2 - u_a6 - 926 y_a6_proc_1 >= -1
 c347: u_a7 - u_a2 - 612 y_a2_proc_2 >= -2557
 c348: u_a7 - u_a2 - 819 y_a2_proc_1 >= -3835
 c349: u_a7 - u_a2 - 965 y_a2_proc_0 >= -2557
 c350: u_a2 - u_a7 - 915 y_a7_proc_2 >= 0
 c351: u_a2 - u_a7 - 1148 y_a7_proc_1 >= -1278
 c352: u_a2 - u_a7 - 795 y_a7_proc_0 >= 0
 c353: u_a8 - u_a2 - 819 y_a2_proc_1 >= -3834
 c354: u_a8 - u_a2 - 965 y_a2_proc_0 >= -2556
 c355: u_a2 - u_a8 - 923 y_a8_proc_1 >= -1279
 c356: u_a2 - u_a8 - 1129 y_a8_proc_0 >= -1
 c357: u_a9 - u_a2 - 612 y_a2_proc_2 >= 0
 c358: u_a9 - u_a2 - 819 y_a2_proc_1 >= -2556
 c359: u_a9 - u_a2 - 965 y_a2_proc_0 >= -2556
 c360: u_a2 - u_a9 - 963 y_a9_proc_2 >= -1
 c361: u_a2 - u_a9 - 1036 y_a9_proc_1 >= -2557
 c362: u_a2 - u_a9 - 1278 y_a9_proc_0 >= -2557
 c363: u_a4 - u_a3 - 708 y_a3_proc_2 >= 999996166
 c364: u_a4 - u_a3 - 1074 y_a3_proc_0 >= 999996166
 c365: u_a3 - u_a4 - 905 y_a4_proc_2 >= -999998723
 c366: u_a3 - u_a4 - 395 y_a4_proc_0 >= -999998723
 c367: u_a5 - u_a3 - 708 y_a3_proc_2 >= 0
 c368: u_a5 - u_a3 - 916 y_a3_proc_1 >= -2556
 c369: u_a5 - u_a3 - 1074 y_a3_proc_0 >= -2556
 c370: u_a3 - u_a5 - 215 y_a5_proc_2 >= -1
 c371: u_a3 - u_a5 - 909 y_a5_proc_1 >= -2557
 c372: u_a3 - u_a5 - 1209 y_a5_proc_0 >= -2557
 c373: u_a6 - u_a3 - 708 y_a3_proc_2 >= -2556
 c374: u_a6 - u_a3 - 916 y_a3_proc_1 >= -2556
 c375: u_a3 - u_a6 - 828 y_a6_proc_2 >= -1
 c376: u_a3 - u_a6 - 926 y_a6_proc_1 >= -1
 c377: u_a7 - u_a3 - 708 y_a3_proc_2 >= -2556
 c378: u_a7 - u_a3 - 916 y_a3_proc_1 >= -3834
 c379: u_a7 - u_a3 - 1074 y_a3_proc_0 >= -2556
 c380: u_a3 - u_a7 - 915 y_a7_proc_2 >= -1
 c381: u_a3 - u_a7 - 1148 y_a7_proc_1 >= -1279
 c382: u_a3 - u_a7 - 795 y_a7_proc_0 >= -1
 c383: u_a8 - u_a3 - 916 y_a3_proc_1 >= -3834
 c384: u_a8 - u_a3 - 1074 y_a3_proc_0 >= -2556
 c385: u_a3 - u_a8 - 923 y_a8_proc_1 >= -1279
 c386: u_a3 - u_a8 - 1129 y_a8_proc_0 >= -1
 c387: u_a9 - u_a3 - 708 y_a3_proc_2 >= 0
 c388: u_a9 - u_a3 - 916 y_a3_proc_1 >= -2556
 c389: u_a9 - u_a3 - 1074 y_a3_proc_0 >= -2556
 c390: u_a3 - u_a9 - 963 y_a9_proc_2 >= -1
 c391: u_a3 - u_a9 - 1036 y_a9_proc_1 >= -2557
 c392: u_a3 - u_a9 - 1278 y_a9_proc_0 >= -2557
 c393: u_a5 - u_a4 - 905 y_a4_proc_2 >= -1000001278
 c394: u_a5 - u_a4 - 395 y_a4_proc_0 >= -1000001278
 c395: u_a4 - u_a5 - 215 y_a5_proc_2 >= 999998721
 c396: u_a4 - u_a5 - 1209 y_a5_proc_0 >= 999998721
 c397: u_a6 - u_a4 - 905 y_a4_proc_2 >= -1000002556
 c398: u_a4 - u_a6 - 828 y_a6_proc_2 >= 999997443
 c399: u_a7 - u_a4 - 905 y_a4_proc_2 >= -1000001279
 c400: u_a7 - u_a4 - 395 y_a4_proc_0 >= -999998723
 c401: u_a4 - u_a7 - 915 y_a7_proc_2 >= 999996166
 c402: u_a4 - u_a7 - 795 y_a7_proc_0 >= 999998722
 c403: u_a8 - u_a4 - 395 y_a4_proc_0 >= -999998722
 c404: u_a4 - u_a8 - 1129 y_a8_proc_0 >= 999998721
 c405: u_a9 - u_a4 - 905 y_a4_proc_2 >= -1000001278
 c406: u_a9 - u_a4 - 395 y_a4_proc_0 >= -1000001278
 c407: u_a4 - u_a9 - 963 y_a9_proc_2 >= 999998721
 c408: u_a4 - u_a9 - 1278 y_a9_proc_0 >= 999998721
 c409: u_a6 - u_a5 - 215 y_a5_proc_2 >= -2556
 c410: u_a6 - u_a5 - 909 y_a5_proc_1 >= -2556
 c411: u_a5 - u_a6 - 828 y_a6_proc_2 >= -1
 c412: u_a5 - u_a6 - 926 y_a6_proc_1 >= -1
 c413: u_a7 - u_a5 - 215 y_a5_proc_2 >= -2556
 c414: u_a7 - u_a5 - 909 y_a5_proc_1 >= -3834
 c415: u_a7 - u_a5 - 1209 y_a5_proc_0 >= -2556
 c416: u_a5 - u_a7 - 915 y_a7_proc_2 >= -1
 c417: u_a5 - u_a7 - 1148 y_a7_proc_1 >= -1279
 c418: u_a5 - u_a7 - 795 y_a7_proc_0 >= -1
 c419: u_a8 - u_a5 - 909 y_a5_proc_1 >= -3834
 c420: u_a8 - u_a5 - 1209 y_a5_proc_0 >= -2556
 c421: u_a5 - u_a8 - 923 y_a8_proc_1 >= -1279
 c422: u_a5 - u_a8 - 1129 y_a8_proc_0 >= -1
 c423: u_a9 - u_a5 - 215 y_a5_proc_2 >= 0
 c424: u_a9 - u_a5 - 909 y_a5_proc_1 >= -2556
 c425: u_a9 - u_a5 - 1209 y_a5_proc_0 >= -2556
 c426: u_a5 - u_a9 - 963 y_a9_proc_2 >= -1
 c427: u_a5 - u_a9 - 1036 y_a9_proc_1 >= -2557
 c428: u_a5 - u_a9 - 1278 y_a9_proc_0 >= -2557
 c429: u_a7 - u_a6 - 828 y_a6_proc_2 >= -3835
 c430: u_a7 - u_a6 - 926 y_a6_proc_1 >= -2557
 c431: u_a6 - u_a7 - 915 y_a7_proc_2 >= -1278
 c432: u_a6 - u_a7 - 1148 y_a7_proc_1 >= 0
 c433: u_a8 - u_a6 - 926 y_a6_proc_1 >= -2556
 c434: u_a6 - u_a8 - 923 y_a8_proc_1 >= -1
 c435: u_a9 - u_a6 - 828 y_a6_proc_2 >= -2556
 c436: u_a9 - u_a6 - 926 y_a6_proc_1 >= -2556
 c437: u_a6 - u_a9 - 963 y_a9_proc_2 >= -1
 c438: u_a6 - u_a9 - 1036 y_a9_proc_1 >= -1
 c439: u_a8 - u_a7 - 1148 y_a7_proc_1 >= -2556
 c440: u_a8 - u_a7 - 795 y_a7_proc_0 >= 0
 c441: u_a7 - u_a8 - 923 y_a8_proc_1 >= -2557
 c442: u_a7 - u_a8 - 1129 y_a8_proc_0 >= -1
 c443: u_a9 - u_a7 - 915 y_a7_proc_2 >= 0
 c444: u_a9 - u_a7 - 1148 y_a7_proc_1 >= -1278
 c445: u_a9 - u_a7 - 795 y_a7_proc_0 >= 0
 c446: u_a7 - u_a9 - 963 y_a9_proc_2 >= -2557
 c447: u_a7 - u_a9 - 1036 y_a9_proc_1 >= -3835
 c448: u_a7 - u_a9 - 1278 y_a9_proc_0 >= -2557
 c449: u_a9 - u_a8 - 923 y_a8_proc_1 >= -3835
 c450: u_a9 - u_a8 - 1129 y_a8_proc_0 >= -2557
 c451: u_a8 - u_a9 - 1036 y_a9_proc_1 >= -1278
 c452: u_a8 - u_a9 - 1278 y_a9_proc_0 >= 0

Bounds
End
