benchmark/results/graph__10-1000-0.10-03_18/graph__10-1000-0.10-03_18_Quinton_Benders_primal_sub.txt
solution for: Quinton Benders_primal_sub
objective: 0.000158705
status: OPTIMAL_SOLUTION(2)
u_a0=0.850
u_a1=0.670
u_a2=0.273
u_a4=999998722.609
u_a5=0.239
u_a6=0.523
u_a7=0.112
u_a8=0.671
u_a9=0.370
tau=0.000
y_a0_proc_1=0.000
y_a1_proc_2=0.000
y_a2_proc_2=0.000
y_a3_proc_2=0.000
y_a4_proc_0=0.000
y_a5_proc_2=0.000
y_a6_proc_1=0.000
y_a7_proc_0=0.000
y_a8_proc_0=0.000
y_a9_proc_2=0.000
